40
1 0 13
2 0 2
2 1 4
3 0 12
3 1 4
3 2 1
4 0 9
4 1 6
4 2 6
4 3 7
5 0 13
5 1 3
5 2 14
5 3 9
5 4 2
6 0 4
6 1 9
6 2 4
6 3 11
6 4 2
6 5 5
7 0 10
7 1 4
7 2 5
7 3 6
7 4 10
7 5 3
7 6 13
8 0 4
8 1 11
8 2 4
8 3 8
8 4 9
8 5 12
8 6 9
8 7 7
9 0 1
9 1 4
9 2 3
9 3 4
9 4 12
9 5 10
9 6 9
9 7 11
9 8 11
10 0 10
10 1 14
10 2 4
10 3 14
10 4 4
10 5 9
10 6 13
10 7 8
10 8 2
10 9 10
11 0 9
11 1 6
11 2 3
11 3 3
11 4 6
11 5 9
11 6 2
11 7 13
11 8 10
11 9 7
11 10 10
12 0 8
12 1 14
12 2 8
12 3 4
12 4 8
12 5 4
12 6 5
12 7 11
12 8 11
12 9 2
12 10 10
12 11 13
13 0 11
13 1 12
13 2 3
13 3 9
13 4 7
13 5 12
13 6 7
13 7 7
13 8 3
13 9 7
13 10 14
13 11 1
13 12 14
14 0 8
14 1 2
14 2 12
14 3 3
14 4 5
14 5 1
14 6 7
14 7 12
14 8 7
14 9 6
14 10 1
14 11 1
14 12 12
14 13 12
15 0 4
15 1 12
15 2 4
15 3 2
15 4 2
15 5 3
15 6 13
15 7 3
15 8 5
15 9 12
15 10 1
15 11 7
15 12 10
15 13 11
15 14 9
16 0 11
16 1 13
16 2 11
16 3 6
16 4 10
16 5 9
16 6 13
16 7 5
16 8 13
16 9 7
16 10 3
16 11 1
16 12 7
16 13 10
16 14 8
16 15 6
17 0 2
17 1 9
17 2 2
17 3 9
17 4 1
17 5 1
17 6 14
17 7 10
17 8 7
17 9 10
17 10 14
17 11 12
17 12 10
17 13 5
17 14 1
17 15 13
17 16 10
18 0 11
18 1 6
18 2 12
18 3 1
18 4 7
18 5 10
18 6 10
18 7 8
18 8 9
18 9 12
18 10 1
18 11 12
18 12 9
18 13 5
18 14 14
18 15 5
18 16 6
18 17 5
19 0 3
19 1 9
19 2 6
19 3 9
19 4 9
19 5 8
19 6 6
19 7 7
19 8 7
19 9 8
19 10 14
19 11 13
19 12 11
19 13 7
19 14 7
19 15 13
19 16 4
19 17 4
19 18 4
20 0 11
20 1 14
20 2 10
20 3 3
20 4 3
20 5 2
20 6 14
20 7 10
20 8 8
20 9 10
20 10 14
20 11 5
20 12 5
20 13 1
20 14 11
20 15 4
20 16 3
20 17 12
20 18 11
20 19 9
21 0 13
21 1 12
21 2 8
21 3 2
21 4 11
21 5 13
21 6 4
21 7 8
21 8 3
21 9 2
21 10 12
21 11 8
21 12 10
21 13 3
21 14 7
21 15 2
21 16 4
21 17 4
21 18 14
21 19 7
21 20 2
22 0 8
22 1 14
22 2 9
22 3 8
22 4 1
22 5 12
22 6 3
22 7 7
22 8 12
22 9 14
22 10 4
22 11 5
22 12 5
22 13 11
22 14 9
22 15 12
22 16 13
22 17 4
22 18 7
22 19 10
22 20 13
22 21 12
23 0 1
23 1 11
23 2 1
23 3 9
23 4 13
23 5 11
23 6 2
23 7 9
23 8 4
23 9 2
23 10 2
23 11 1
23 12 13
23 13 12
23 14 5
23 15 8
23 16 3
23 17 3
23 18 1
23 19 14
23 20 1
23 21 5
23 22 13
24 0 7
24 1 7
24 2 3
24 3 14
24 4 8
24 5 1
24 6 2
24 7 6
24 8 13
24 9 6
24 10 13
24 11 3
24 12 3
24 13 6
24 14 7
24 15 3
24 16 6
24 17 4
24 18 10
24 19 1
24 20 9
24 21 9
24 22 1
24 23 5
25 0 1
25 1 14
25 2 6
25 3 13
25 4 6
25 5 10
25 6 4
25 7 7
25 8 2
25 9 6
25 10 11
25 11 9
25 12 7
25 13 2
25 14 14
25 15 10
25 16 12
25 17 11
25 18 3
25 19 5
25 20 7
25 21 13
25 22 11
25 23 12
25 24 4
26 0 12
26 1 8
26 2 12
26 3 3
26 4 1
26 5 12
26 6 12
26 7 4
26 8 5
26 9 2
26 10 12
26 11 3
26 12 14
26 13 3
26 14 14
26 15 9
26 16 10
26 17 13
26 18 3
26 19 7
26 20 1
26 21 5
26 22 6
26 23 1
26 24 9
26 25 8
27 0 4
27 1 7
27 2 8
27 3 10
27 4 6
27 5 12
27 6 8
27 7 9
27 8 7
27 9 6
27 10 8
27 11 2
27 12 5
27 13 1
27 14 11
27 15 1
27 16 9
27 17 9
27 18 3
27 19 4
27 20 5
27 21 2
27 22 7
27 23 3
27 24 7
27 25 11
27 26 14
28 0 5
28 1 14
28 2 7
28 3 2
28 4 6
28 5 2
28 6 7
28 7 6
28 8 2
28 9 11
28 10 7
28 11 4
28 12 12
28 13 2
28 14 3
28 15 7
28 16 10
28 17 3
28 18 1
28 19 5
28 20 5
28 21 6
28 22 4
28 23 12
28 24 11
28 25 14
28 26 12
28 27 13
29 0 10
29 1 10
29 2 14
29 3 7
29 4 2
29 5 8
29 6 4
29 7 3
29 8 5
29 9 11
29 10 13
29 11 6
29 12 14
29 13 11
29 14 12
29 15 10
29 16 8
29 17 9
29 18 14
29 19 10
29 20 5
29 21 8
29 22 5
29 23 3
29 24 13
29 25 14
29 26 6
29 27 3
29 28 6
30 0 11
30 1 7
30 2 2
30 3 2
30 4 11
30 5 9
30 6 5
30 7 3
30 8 5
30 9 2
30 10 9
30 11 10
30 12 6
30 13 12
30 14 13
30 15 4
30 16 3
30 17 5
30 18 14
30 19 7
30 20 5
30 21 9
30 22 7
30 23 11
30 24 10
30 25 2
30 26 1
30 27 7
30 28 12
30 29 4
31 0 5
31 1 3
31 2 2
31 3 13
31 4 10
31 5 1
31 6 5
31 7 2
31 8 2
31 9 2
31 10 12
31 11 2
31 12 6
31 13 7
31 14 4
31 15 12
31 16 7
31 17 4
31 18 5
31 19 2
31 20 4
31 21 3
31 22 11
31 23 1
31 24 11
31 25 13
31 26 3
31 27 2
31 28 5
31 29 1
31 30 5
32 0 9
32 1 3
32 2 13
32 3 4
32 4 1
32 5 10
32 6 13
32 7 13
32 8 1
32 9 12
32 10 7
32 11 10
32 12 10
32 13 10
32 14 9
32 15 7
32 16 3
32 17 2
32 18 13
32 19 6
32 20 5
32 21 10
32 22 12
32 23 1
32 24 12
32 25 4
32 26 3
32 27 13
32 28 10
32 29 4
32 30 8
32 31 12
33 0 11
33 1 11
33 2 14
33 3 7
33 4 3
33 5 9
33 6 7
33 7 2
33 8 1
33 9 12
33 10 2
33 11 1
33 12 8
33 13 14
33 14 13
33 15 3
33 16 3
33 17 11
33 18 7
33 19 9
33 20 4
33 21 9
33 22 10
33 23 11
33 24 12
33 25 9
33 26 6
33 27 6
33 28 1
33 29 14
33 30 7
33 31 1
33 32 12
34 0 6
34 1 1
34 2 14
34 3 1
34 4 14
34 5 7
34 6 13
34 7 6
34 8 12
34 9 1
34 10 12
34 11 3
34 12 7
34 13 7
34 14 1
34 15 3
34 16 12
34 17 3
34 18 5
34 19 8
34 20 11
34 21 13
34 22 12
34 23 1
34 24 9
34 25 4
34 26 13
34 27 4
34 28 13
34 29 11
34 30 14
34 31 11
34 32 11
34 33 6
35 0 4
35 1 14
35 2 13
35 3 5
35 4 7
35 5 13
35 6 7
35 7 1
35 8 10
35 9 11
35 10 13
35 11 12
35 12 1
35 13 10
35 14 14
35 15 2
35 16 5
35 17 1
35 18 3
35 19 2
35 20 5
35 21 13
35 22 5
35 23 1
35 24 7
35 25 9
35 26 9
35 27 1
35 28 14
35 29 11
35 30 1
35 31 3
35 32 6
35 33 14
35 34 12
36 0 13
36 1 11
36 2 1
36 3 1
36 4 6
36 5 1
36 6 6
36 7 14
36 8 14
36 9 9
36 10 10
36 11 13
36 12 8
36 13 11
36 14 7
36 15 12
36 16 3
36 17 6
36 18 5
36 19 5
36 20 5
36 21 3
36 22 7
36 23 1
36 24 11
36 25 5
36 26 13
36 27 4
36 28 5
36 29 12
36 30 3
36 31 5
36 32 14
36 33 4
36 34 1
36 35 14
37 0 5
37 1 11
37 2 7
37 3 7
37 4 5
37 5 4
37 6 10
37 7 9
37 8 11
37 9 8
37 10 2
37 11 5
37 12 11
37 13 9
37 14 1
37 15 8
37 16 6
37 17 5
37 18 13
37 19 1
37 20 5
37 21 1
37 22 14
37 23 3
37 24 13
37 25 12
37 26 9
37 27 6
37 28 14
37 29 6
37 30 7
37 31 11
37 32 11
37 33 10
37 34 3
37 35 3
37 36 7
38 0 14
38 1 14
38 2 8
38 3 11
38 4 4
38 5 4
38 6 4
38 7 14
38 8 10
38 9 8
38 10 12
38 11 6
38 12 9
38 13 2
38 14 12
38 15 5
38 16 1
38 17 1
38 18 11
38 19 3
38 20 6
38 21 9
38 22 9
38 23 9
38 24 9
38 25 11
38 26 5
38 27 4
38 28 3
38 29 10
38 30 5
38 31 11
38 32 4
38 33 5
38 34 10
38 35 12
38 36 9
38 37 3
39 0 6
39 1 3
39 2 5
39 3 6
39 4 13
39 5 8
39 6 2
39 7 7
39 8 13
39 9 9
39 10 7
39 11 1
39 12 13
39 13 11
39 14 12
39 15 12
39 16 2
39 17 10
39 18 8
39 19 14
39 20 13
39 21 3
39 22 4
39 23 2
39 24 10
39 25 11
39 26 7
39 27 2
39 28 14
39 29 2
39 30 4
39 31 7
39 32 10
39 33 6
39 34 10
39 35 5
39 36 6
39 37 12
39 38 8
